;; Mutation-Based Equivalence Benchmark
;; Source:     AutomatArk / instance06773.smt2
;; Mutations:  range_shrink_hi
;; Status:     sat
;;
;; Original regex vs mutated regex
;; Equivalence check: unsat ⟺ L(R1) = L(R2)

(set-info :smt-lib-version 2.6)
(set-info :category "mutation")
(set-info :status sat)
(set-logic QF_S)


;; R1: original
;; R2: mutated (range_shrink_hi)
(assert
  (not
    (=
      (re.++ (re.union (re.++ (re.range "0" "1") (re.range "0" "9")) (re.++ (str.to_re "2") (re.range "0" "3"))) (str.to_re ":\u{a}") (re.range "0" "5") (re.range "0" "9"))
      (re.++ (re.union (re.++ (re.range "0" "0") (re.range "0" "9")) (re.++ (str.to_re "2") (re.range "0" "3"))) (str.to_re ":\u{a}") (re.range "0" "5") (re.range "0" "9")))))

(check-sat)
(exit)
